1 0 1 0
0 0 2 0
2 0 2 1
3 0 1 8
1 1 2 8
2 1 3 6
0 1 0 1
5 0 1 13
2 2 5 10
3 1 0 13
4 0 2 13
1 2 4 13
5 1 3 16
3 2 2 22
4 1 1 22
5 2 5 19
3 3 3 27
2 3 0 18
2 4 1 27
4 2 4 25
1 3 5 28
5 3 0 28
3 4 4 30
1 4 0 38
4 3 5 38
0 2 1 28
0 3 3 34
1 5 3 48
0 4 5 42
3 5 5 45
5 4 4 38
5 5 2 42
4 4 0 48
2 5 4 42
4 5 3 52
0 5 4 49

